;Number of predicates (nodes) = 12
;Number of variables = 5
;Number of clauses = 15
;
(set-logic HORN)
(declare-fun assign_27_11_286 (Int Int Int Int Int Int Int Int Int Int Int) Bool)
(declare-fun assert_26_11_277 (Int Int Int Int Int Int Int Int Int Int Int) Bool)
(declare-fun while_24_1_289 (Int Int Int Int Int Int Int Int Int Int Int) Bool)
(declare-fun assign_23_8_206 (Int Int Int Int Int Int Int Int Int Int Int) Bool)
(declare-fun assign_19_5_158 (Int Int Int Int Int Int Int Int Int Int Int) Bool)
(declare-fun arrayassign_18_5_149 (Int Int Int Int Int Int Int Int Int Int Int) Bool)
(declare-fun while_16_1_161 (Int Int Int Int Int Int Int Int Int Int Int) Bool)
(declare-fun assign_15_1_85 (Int Int Int Int Int Int Int Int Int Int Int) Bool)
(declare-fun assign_12_8_79 (Int Int Int Int Int Int Int Int Int Int Int) Bool)
(declare-fun assign_11_1_67 (Int Int Int Int Int Int Int Int Int Int Int) Bool)
(declare-fun end (Int Int Int Int Int Int Int Int Int Int Int) Bool)
(declare-fun start (Int Int Int Int Int Int Int Int Int Int Int) Bool)
(assert (forall ((Na Int) (Nb Int) (a0_ind Int) (a0_val Int) (a1_ind Int) (a1_val Int) (b0_ind Int) (b0_val Int) (b1_ind Int) (b1_val Int) (i Int)) (=> (and (< a0_ind a1_ind) (< b0_ind b1_ind)) (start b0_ind b0_val b1_ind b1_val a0_ind a0_val a1_ind a1_val Nb Na i))))
(assert (forall ((Na Int) (Nb Int) (a0_ind Int) (a0_val Int) (a1_ind Int) (a1_val Int) (b0_ind Int) (b0_val Int) (b1_ind Int) (b1_val Int) (i Int)) (=> (and (< a0_ind a1_ind) (< b0_ind b1_ind) (start b0_ind b0_val b1_ind b1_val a0_ind a0_val a1_ind a1_val Nb Na i)) (assign_11_1_67 b0_ind b0_val b1_ind b1_val a0_ind a0_val a1_ind a1_val Nb Na i))))
;
;(assign)  Na := Support.random()
(assert (forall ((Na Int) (Nb Int) (a0_ind Int) (a0_val Int) (a1_ind Int) (a1_val Int) (b0_ind Int) (b0_val Int) (b1_ind Int) (b1_val Int) (i Int) (rnd Int)) (=> (and (< a0_ind a1_ind) (< b0_ind b1_ind) (assign_11_1_67 b0_ind b0_val b1_ind b1_val a0_ind a0_val a1_ind a1_val Nb Na i)) (assign_12_8_79 b0_ind b0_val b1_ind b1_val a0_ind a0_val a1_ind a1_val Nb rnd i))))
;
;(assign)  Nb := Support.random()
(assert (forall ((Na Int) (Nb Int) (a0_ind Int) (a0_val Int) (a1_ind Int) (a1_val Int) (b0_ind Int) (b0_val Int) (b1_ind Int) (b1_val Int) (i Int) (rnd Int)) (=> (and (< a0_ind a1_ind) (< b0_ind b1_ind) (assign_12_8_79 b0_ind b0_val b1_ind b1_val a0_ind a0_val a1_ind a1_val Nb Na i)) (assign_15_1_85 b0_ind b0_val b1_ind b1_val a0_ind a0_val a1_ind a1_val rnd Na i))))
;
;(assign)  i := Na
(assert (forall ((Na Int) (Nb Int) (a0_ind Int) (a0_val Int) (a1_ind Int) (a1_val Int) (b0_ind Int) (b0_val Int) (b1_ind Int) (b1_val Int) (i Int)) (=> (and (< a0_ind a1_ind) (< b0_ind b1_ind) (assign_15_1_85 b0_ind b0_val b1_ind b1_val a0_ind a0_val a1_ind a1_val Nb Na i)) (while_16_1_161 b0_ind b0_val b1_ind b1_val a0_ind a0_val a1_ind a1_val Nb Na Na))))
;
;(while)   while((i<(Na+Nb)))
(assert (forall ((Na Int) (Nb Int) (a0_ind Int) (a0_val Int) (a1_ind Int) (a1_val Int) (b0_ind Int) (b0_val Int) (b1_ind Int) (b1_val Int) (i Int)) (=> (and (< a0_ind a1_ind) (< b0_ind b1_ind) (while_16_1_161 b0_ind b0_val b1_ind b1_val a0_ind a0_val a1_ind a1_val Nb Na i) (< i (+ Na Nb))) (arrayassign_18_5_149 b0_ind b0_val b1_ind b1_val a0_ind a0_val a1_ind a1_val Nb Na i))))
(assert (forall ((Na Int) (Nb Int) (a0_ind Int) (a0_val Int) (a1_ind Int) (a1_val Int) (b0_ind Int) (b0_val Int) (b1_ind Int) (b1_val Int) (i Int)) (=> (and (< a0_ind a1_ind) (< b0_ind b1_ind) (while_16_1_161 b0_ind b0_val b1_ind b1_val a0_ind a0_val a1_ind a1_val Nb Na i) (not (< i (+ Na Nb)))) (assign_23_8_206 b0_ind b0_val b1_ind b1_val a0_ind a0_val a1_ind a1_val Nb Na i))))
;
;(aassign) a[i] := b[(i-Na)]
(assert (forall ((Na Int) (Nb Int) (a0_ind Int) (a0_val Int) (a1_ind Int) (a1_val Int) (b0_ind Int) (b0_val Int) (b1_ind Int) (b1_val Int) (i Int) (tmp_select_b Int) (tmp_store_a0_ind Int) (tmp_store_a0_val Int) (tmp_store_a1_ind Int) (tmp_store_a1_val Int)) (=> (and (< a0_ind a1_ind) (< b0_ind b1_ind) (arrayassign_18_5_149 b0_ind b0_val b1_ind b1_val a0_ind a0_val a1_ind a1_val Nb Na i) (or (and (= b0_ind (- i Na)) (= tmp_select_b b0_val)) (and (= b1_ind (- i Na)) (= tmp_select_b b1_val)) (and (< (- i Na) b0_ind) (< (- i Na) b1_ind) (arrayassign_18_5_149 (- i Na) tmp_select_b b1_ind b1_val a0_ind a0_val a1_ind a1_val Nb Na i) (< (- i Na) b0_ind) (arrayassign_18_5_149 (- i Na) tmp_select_b b0_ind b0_val a0_ind a0_val a1_ind a1_val Nb Na i)) (and (< b0_ind (- i Na)) (< (- i Na) b1_ind) (< (- i Na) b1_ind) (arrayassign_18_5_149 (- i Na) tmp_select_b b1_ind b1_val a0_ind a0_val a1_ind a1_val Nb Na i) (< b0_ind (- i Na)) (arrayassign_18_5_149 b0_ind b0_val (- i Na) tmp_select_b a0_ind a0_val a1_ind a1_val Nb Na i)) (and (< b1_ind (- i Na)) (< b1_ind (- i Na)) (arrayassign_18_5_149 b1_ind b1_val (- i Na) tmp_select_b a0_ind a0_val a1_ind a1_val Nb Na i) (< b0_ind (- i Na)) (arrayassign_18_5_149 b0_ind b0_val (- i Na) tmp_select_b a0_ind a0_val a1_ind a1_val Nb Na i))) (= tmp_store_a0_ind a0_ind) (= tmp_store_a1_ind a1_ind) (or (and (= a0_ind i) (= tmp_store_a1_val a1_val) (= tmp_store_a0_val tmp_select_b)) (and (= a1_ind i) (= tmp_store_a0_val a0_val) (= tmp_store_a1_val tmp_select_b)) (and (not (= a0_ind i)) (not (= a1_ind i)) (= tmp_store_a0_val a0_val) (= tmp_store_a1_val a1_val)))) (assign_19_5_158 b0_ind b0_val b1_ind b1_val tmp_store_a0_ind tmp_store_a0_val tmp_store_a1_ind tmp_store_a1_val Nb Na i))))
;
;(assign)  i := (i+1)
(assert (forall ((Na Int) (Nb Int) (a0_ind Int) (a0_val Int) (a1_ind Int) (a1_val Int) (b0_ind Int) (b0_val Int) (b1_ind Int) (b1_val Int) (i Int)) (=> (and (< a0_ind a1_ind) (< b0_ind b1_ind) (assign_19_5_158 b0_ind b0_val b1_ind b1_val a0_ind a0_val a1_ind a1_val Nb Na i)) (while_16_1_161 b0_ind b0_val b1_ind b1_val a0_ind a0_val a1_ind a1_val Nb Na (+ i 1)))))
;
;(assign)  i := Na
(assert (forall ((Na Int) (Nb Int) (a0_ind Int) (a0_val Int) (a1_ind Int) (a1_val Int) (b0_ind Int) (b0_val Int) (b1_ind Int) (b1_val Int) (i Int)) (=> (and (< a0_ind a1_ind) (< b0_ind b1_ind) (assign_23_8_206 b0_ind b0_val b1_ind b1_val a0_ind a0_val a1_ind a1_val Nb Na i)) (while_24_1_289 b0_ind b0_val b1_ind b1_val a0_ind a0_val a1_ind a1_val Nb Na Na))))
;
;(while)   while((i<(Na+Nb)))
(assert (forall ((Na Int) (Nb Int) (a0_ind Int) (a0_val Int) (a1_ind Int) (a1_val Int) (b0_ind Int) (b0_val Int) (b1_ind Int) (b1_val Int) (i Int)) (=> (and (< a0_ind a1_ind) (< b0_ind b1_ind) (while_24_1_289 b0_ind b0_val b1_ind b1_val a0_ind a0_val a1_ind a1_val Nb Na i) (< i (+ Na Nb))) (assert_26_11_277 b0_ind b0_val b1_ind b1_val a0_ind a0_val a1_ind a1_val Nb Na i))))
(assert (forall ((Na Int) (Nb Int) (a0_ind Int) (a0_val Int) (a1_ind Int) (a1_val Int) (b0_ind Int) (b0_val Int) (b1_ind Int) (b1_val Int) (i Int)) (=> (and (< a0_ind a1_ind) (< b0_ind b1_ind) (while_24_1_289 b0_ind b0_val b1_ind b1_val a0_ind a0_val a1_ind a1_val Nb Na i) (not (< i (+ Na Nb)))) (end b0_ind b0_val b1_ind b1_val a0_ind a0_val a1_ind a1_val Nb Na i))))
;
;(assert)  (a[i]==b[(i-Na)])
(assert (forall ((Na Int) (Nb Int) (a0_ind Int) (a0_val Int) (a1_ind Int) (a1_val Int) (b0_ind Int) (b0_val Int) (b1_ind Int) (b1_val Int) (i Int) (tmp_select_a Int) (tmp_select_b Int)) (=> (and (< a0_ind a1_ind) (< b0_ind b1_ind) (assert_26_11_277 b0_ind b0_val b1_ind b1_val a0_ind a0_val a1_ind a1_val Nb Na i) (or (and (= a0_ind i) (= tmp_select_a a0_val)) (and (= a1_ind i) (= tmp_select_a a1_val)) (and (< i a0_ind) (< i a1_ind) (assert_26_11_277 b0_ind b0_val b1_ind b1_val i tmp_select_a a1_ind a1_val Nb Na i) (< i a0_ind) (assert_26_11_277 b0_ind b0_val b1_ind b1_val i tmp_select_a a0_ind a0_val Nb Na i)) (and (< a0_ind i) (< i a1_ind) (< i a1_ind) (assert_26_11_277 b0_ind b0_val b1_ind b1_val i tmp_select_a a1_ind a1_val Nb Na i) (< a0_ind i) (assert_26_11_277 b0_ind b0_val b1_ind b1_val a0_ind a0_val i tmp_select_a Nb Na i)) (and (< a1_ind i) (< a1_ind i) (assert_26_11_277 b0_ind b0_val b1_ind b1_val a1_ind a1_val i tmp_select_a Nb Na i) (< a0_ind i) (assert_26_11_277 b0_ind b0_val b1_ind b1_val a0_ind a0_val i tmp_select_a Nb Na i))) (or (and (= b0_ind (- i Na)) (= tmp_select_b b0_val)) (and (= b1_ind (- i Na)) (= tmp_select_b b1_val)) (and (< (- i Na) b0_ind) (< (- i Na) b1_ind) (assert_26_11_277 (- i Na) tmp_select_b b1_ind b1_val a0_ind a0_val a1_ind a1_val Nb Na i) (or (and (= a0_ind i) (= tmp_select_a a0_val)) (and (= a1_ind i) (= tmp_select_a a1_val)) (and (< i a0_ind) (< i a1_ind) (assert_26_11_277 (- i Na) tmp_select_b b1_ind b1_val i tmp_select_a a1_ind a1_val Nb Na i) (< i a0_ind) (assert_26_11_277 (- i Na) tmp_select_b b1_ind b1_val i tmp_select_a a0_ind a0_val Nb Na i)) (and (< a0_ind i) (< i a1_ind) (< i a1_ind) (assert_26_11_277 (- i Na) tmp_select_b b1_ind b1_val i tmp_select_a a1_ind a1_val Nb Na i) (< a0_ind i) (assert_26_11_277 (- i Na) tmp_select_b b1_ind b1_val a0_ind a0_val i tmp_select_a Nb Na i)) (and (< a1_ind i) (< a1_ind i) (assert_26_11_277 (- i Na) tmp_select_b b1_ind b1_val a1_ind a1_val i tmp_select_a Nb Na i) (< a0_ind i) (assert_26_11_277 (- i Na) tmp_select_b b1_ind b1_val a0_ind a0_val i tmp_select_a Nb Na i))) (< (- i Na) b0_ind) (assert_26_11_277 (- i Na) tmp_select_b b0_ind b0_val a0_ind a0_val a1_ind a1_val Nb Na i) (or (and (= a0_ind i) (= tmp_select_a a0_val)) (and (= a1_ind i) (= tmp_select_a a1_val)) (and (< i a0_ind) (< i a1_ind) (assert_26_11_277 (- i Na) tmp_select_b b0_ind b0_val i tmp_select_a a1_ind a1_val Nb Na i) (< i a0_ind) (assert_26_11_277 (- i Na) tmp_select_b b0_ind b0_val i tmp_select_a a0_ind a0_val Nb Na i)) (and (< a0_ind i) (< i a1_ind) (< i a1_ind) (assert_26_11_277 (- i Na) tmp_select_b b0_ind b0_val i tmp_select_a a1_ind a1_val Nb Na i) (< a0_ind i) (assert_26_11_277 (- i Na) tmp_select_b b0_ind b0_val a0_ind a0_val i tmp_select_a Nb Na i)) (and (< a1_ind i) (< a1_ind i) (assert_26_11_277 (- i Na) tmp_select_b b0_ind b0_val a1_ind a1_val i tmp_select_a Nb Na i) (< a0_ind i) (assert_26_11_277 (- i Na) tmp_select_b b0_ind b0_val a0_ind a0_val i tmp_select_a Nb Na i)))) (and (< b0_ind (- i Na)) (< (- i Na) b1_ind) (< (- i Na) b1_ind) (assert_26_11_277 (- i Na) tmp_select_b b1_ind b1_val a0_ind a0_val a1_ind a1_val Nb Na i) (or (and (= a0_ind i) (= tmp_select_a a0_val)) (and (= a1_ind i) (= tmp_select_a a1_val)) (and (< i a0_ind) (< i a1_ind) (assert_26_11_277 (- i Na) tmp_select_b b1_ind b1_val i tmp_select_a a1_ind a1_val Nb Na i) (< i a0_ind) (assert_26_11_277 (- i Na) tmp_select_b b1_ind b1_val i tmp_select_a a0_ind a0_val Nb Na i)) (and (< a0_ind i) (< i a1_ind) (< i a1_ind) (assert_26_11_277 (- i Na) tmp_select_b b1_ind b1_val i tmp_select_a a1_ind a1_val Nb Na i) (< a0_ind i) (assert_26_11_277 (- i Na) tmp_select_b b1_ind b1_val a0_ind a0_val i tmp_select_a Nb Na i)) (and (< a1_ind i) (< a1_ind i) (assert_26_11_277 (- i Na) tmp_select_b b1_ind b1_val a1_ind a1_val i tmp_select_a Nb Na i) (< a0_ind i) (assert_26_11_277 (- i Na) tmp_select_b b1_ind b1_val a0_ind a0_val i tmp_select_a Nb Na i))) (< b0_ind (- i Na)) (assert_26_11_277 b0_ind b0_val (- i Na) tmp_select_b a0_ind a0_val a1_ind a1_val Nb Na i) (or (and (= a0_ind i) (= tmp_select_a a0_val)) (and (= a1_ind i) (= tmp_select_a a1_val)) (and (< i a0_ind) (< i a1_ind) (assert_26_11_277 b0_ind b0_val (- i Na) tmp_select_b i tmp_select_a a1_ind a1_val Nb Na i) (< i a0_ind) (assert_26_11_277 b0_ind b0_val (- i Na) tmp_select_b i tmp_select_a a0_ind a0_val Nb Na i)) (and (< a0_ind i) (< i a1_ind) (< i a1_ind) (assert_26_11_277 b0_ind b0_val (- i Na) tmp_select_b i tmp_select_a a1_ind a1_val Nb Na i) (< a0_ind i) (assert_26_11_277 b0_ind b0_val (- i Na) tmp_select_b a0_ind a0_val i tmp_select_a Nb Na i)) (and (< a1_ind i) (< a1_ind i) (assert_26_11_277 b0_ind b0_val (- i Na) tmp_select_b a1_ind a1_val i tmp_select_a Nb Na i) (< a0_ind i) (assert_26_11_277 b0_ind b0_val (- i Na) tmp_select_b a0_ind a0_val i tmp_select_a Nb Na i)))) (and (< b1_ind (- i Na)) (< b1_ind (- i Na)) (assert_26_11_277 b1_ind b1_val (- i Na) tmp_select_b a0_ind a0_val a1_ind a1_val Nb Na i) (or (and (= a0_ind i) (= tmp_select_a a0_val)) (and (= a1_ind i) (= tmp_select_a a1_val)) (and (< i a0_ind) (< i a1_ind) (assert_26_11_277 b1_ind b1_val (- i Na) tmp_select_b i tmp_select_a a1_ind a1_val Nb Na i) (< i a0_ind) (assert_26_11_277 b1_ind b1_val (- i Na) tmp_select_b i tmp_select_a a0_ind a0_val Nb Na i)) (and (< a0_ind i) (< i a1_ind) (< i a1_ind) (assert_26_11_277 b1_ind b1_val (- i Na) tmp_select_b i tmp_select_a a1_ind a1_val Nb Na i) (< a0_ind i) (assert_26_11_277 b1_ind b1_val (- i Na) tmp_select_b a0_ind a0_val i tmp_select_a Nb Na i)) (and (< a1_ind i) (< a1_ind i) (assert_26_11_277 b1_ind b1_val (- i Na) tmp_select_b a1_ind a1_val i tmp_select_a Nb Na i) (< a0_ind i) (assert_26_11_277 b1_ind b1_val (- i Na) tmp_select_b a0_ind a0_val i tmp_select_a Nb Na i))) (< b0_ind (- i Na)) (assert_26_11_277 b0_ind b0_val (- i Na) tmp_select_b a0_ind a0_val a1_ind a1_val Nb Na i) (or (and (= a0_ind i) (= tmp_select_a a0_val)) (and (= a1_ind i) (= tmp_select_a a1_val)) (and (< i a0_ind) (< i a1_ind) (assert_26_11_277 b0_ind b0_val (- i Na) tmp_select_b i tmp_select_a a1_ind a1_val Nb Na i) (< i a0_ind) (assert_26_11_277 b0_ind b0_val (- i Na) tmp_select_b i tmp_select_a a0_ind a0_val Nb Na i)) (and (< a0_ind i) (< i a1_ind) (< i a1_ind) (assert_26_11_277 b0_ind b0_val (- i Na) tmp_select_b i tmp_select_a a1_ind a1_val Nb Na i) (< a0_ind i) (assert_26_11_277 b0_ind b0_val (- i Na) tmp_select_b a0_ind a0_val i tmp_select_a Nb Na i)) (and (< a1_ind i) (< a1_ind i) (assert_26_11_277 b0_ind b0_val (- i Na) tmp_select_b a1_ind a1_val i tmp_select_a Nb Na i) (< a0_ind i) (assert_26_11_277 b0_ind b0_val (- i Na) tmp_select_b a0_ind a0_val i tmp_select_a Nb Na i)))))) (= tmp_select_a tmp_select_b))))
(assert (forall ((Na Int) (Nb Int) (a0_ind Int) (a0_val Int) (a1_ind Int) (a1_val Int) (b0_ind Int) (b0_val Int) (b1_ind Int) (b1_val Int) (i Int)) (=> (and (< a0_ind a1_ind) (< b0_ind b1_ind) (assert_26_11_277 b0_ind b0_val b1_ind b1_val a0_ind a0_val a1_ind a1_val Nb Na i)) (assign_27_11_286 b0_ind b0_val b1_ind b1_val a0_ind a0_val a1_ind a1_val Nb Na i))))
;
;(assign)  i := (i+1)
(assert (forall ((Na Int) (Nb Int) (a0_ind Int) (a0_val Int) (a1_ind Int) (a1_val Int) (b0_ind Int) (b0_val Int) (b1_ind Int) (b1_val Int) (i Int)) (=> (and (< a0_ind a1_ind) (< b0_ind b1_ind) (assign_27_11_286 b0_ind b0_val b1_ind b1_val a0_ind a0_val a1_ind a1_val Nb Na i)) (while_24_1_289 b0_ind b0_val b1_ind b1_val a0_ind a0_val a1_ind a1_val Nb Na (+ i 1)))))
(check-sat)
